NAME: Atlanta
COMMENT: 20 locations in Atlanta
DIMENSION: 20
EDGE_WEIGHT_TYPE: EUC_2D
NODE_COORD_SECTION
1 33665568.000000 -84411070.000000
2 33764940.000000 -84371819.000000
3 33770889.000000 -84358622.000000
4 34233391.000000 -84103278.000000
5 33921088.000000 -84337342.000000
6 34087634.000000 -84530646.000000
7 33683084.000000 -84442307.000000
8 33968483.000000 -84204487.000000
9 33809946.000000 -84438909.000000
10 34070898.000000 -84277636.000000
11 33903368.000000 -84376924.000000
12 33836703.000000 -84481173.000000
13 33792891.000000 -84396721.000000
14 33975761.000000 -84265625.000000
15 34002830.000000 -84146049.000000
16 34091985.000000 -84275997.000000
17 33788510.000000 -84369260.000000
18 33872130.000000 -84261650.000000
19 34003208.000000 -84040883.000000
20 33936017.000000 -84388948.000000
EOF
